Route #1: 67 34 46 52 27 54 13 57 15 5 29 45
Route #2: 19 14 59 11 66 65 58 72 12 26
Route #3: 7 8 35 53 38 10 31 39 9 40
Route #4: 17 3 44 32 50 25 55 18 24 49 63 16 51
Route #5: 33 73 1 43 23 56 41 42 64 22 62 2
Route #6: 48 21 47 36 37 20 70 60 71 69 61 28 74 68
Route #7: 6 30 4 75
Cost 724